p cnf 121 106
-1 100 -101 -102 -103 -105 -106 -107 -108 -109 -110 -111 -112 -114 -118 -119 -13 -17 -24 -26 -27 -28 -38 -39 -48 -87 0 
-2 3 53 86 100 -101 -102 -103 -105 -106 -107 -108 -109 -110 -111 -112 -114 -118 -119 -13 -17 -24 -26 -27 -28 -38 -39 -48 -87 0 
-3 2 53 86 100 -101 -102 -103 -105 -106 -107 -108 -109 -110 -111 -112 -114 -118 -119 -13 -17 -24 -26 -27 -28 -38 -39 -48 -87 0 
-4 20 72 100 -101 -102 -103 -105 -106 -107 -108 -109 -110 -111 -112 -114 -118 -119 -13 -17 -24 -26 -27 -28 -38 -39 -48 -87 0 
-5 100 -101 -102 -103 -105 -106 -107 -108 -109 -110 -111 -112 -114 -118 -119 -13 -17 -24 -26 -27 -28 -38 -39 -48 -87 0 
-6 31 -7 -8 66 80 101 -102 -103 -105 -106 -107 -108 -109 -110 -111 -112 -114 -118 -119 0 
-9 100 -101 -102 -103 -105 -106 -107 -108 -109 -110 -111 -112 -114 -118 -119 -13 -17 -24 -26 -27 -28 -38 -39 -48 -87 0 
-10 -8 66 80 101 -102 -103 -105 -106 -107 -108 -109 -110 -111 -112 -114 -118 -119 0 
-11 55 62 102 -101 -103 -105 -106 -107 -108 -109 -110 -111 -112 -114 -118 -119 0 
-11 55 62 103 -101 -102 -105 -106 -107 -108 -109 -110 -111 -112 -114 -118 -119 0 
-11 55 62 104 0 
-12 100 -101 -102 -103 -105 -106 -107 -108 -109 -110 -111 -112 -114 -118 -119 -13 -17 -24 -26 -27 -28 -38 -39 -48 -87 0 
-13 17 24 26 27 28 38 39 48 87 105 -101 -102 -103 -106 -107 -108 -109 -110 -111 -112 -114 -118 -119 0 
-14 100 -101 -102 -103 -105 -106 -107 -108 -109 -110 -111 -112 -114 -118 -119 -13 -17 -24 -26 -27 -28 -38 -39 -48 -87 0 
-15 100 -101 -102 -103 -105 -106 -107 -108 -109 -110 -111 -112 -114 -118 -119 -13 -17 -24 -26 -27 -28 -38 -39 -48 -87 0 
-16 83 100 -101 -102 -103 -105 -106 -107 -108 -109 -110 -111 -112 -114 -118 -119 -13 -17 -24 -26 -27 -28 -38 -39 -48 -87 0 
-10 100 -101 -102 -103 -105 -106 -107 -108 -109 -110 -111 -112 -114 -118 -119 -13 -17 -24 -26 -27 -28 -38 -39 -48 -87 0 
-17 13 24 26 27 28 38 39 48 87 -18 41 46 61 79 106 -101 -102 -103 -105 -107 -108 -109 -110 -111 -112 -114 -118 -119 0 
-19 65 82 98 107 -101 -102 -103 -105 -106 -108 -109 -110 -111 -112 -114 -118 -119 0 
-20 4 72 -21 107 -101 -102 -103 -105 -106 -108 -109 -110 -111 -112 -114 -118 -119 0 
-22 43 52 57 100 -101 -102 -103 -105 -106 -107 -108 -109 -110 -111 -112 -114 -118 -119 -13 -17 -24 -26 -27 -28 -38 -39 -48 -87 0 
-23 100 -101 -102 -103 -105 -106 -107 -108 -109 -110 -111 -112 -114 -118 -119 -13 -17 -24 -26 -27 -28 -38 -39 -48 -87 0 
-24 13 17 26 27 28 38 39 48 87 102 -101 -103 -105 -106 -107 -108 -109 -110 -111 -112 -114 -118 -119 0 
-25 107 -101 -102 -103 -105 -106 -108 -109 -110 -111 -112 -114 -118 -119 0 
-26 13 17 24 27 28 38 39 48 87 108 -101 -102 -103 -105 -106 -107 -109 -110 -111 -112 -114 -118 -119 0 
-27 13 17 24 26 28 38 39 48 87 109 -101 -102 -103 -105 -106 -107 -108 -110 -111 -112 -114 -118 -119 0 
-28 13 17 24 26 27 38 39 48 87 110 -101 -102 -103 -105 -106 -107 -108 -109 -111 -112 -114 -118 -119 0 
-12 -23 -4 20 72 100 -101 -102 -103 -105 -106 -107 -108 -109 -110 -111 -112 -114 -118 -119 -13 -17 -24 -26 -27 -28 -38 -39 -48 -87 0 
-12 -29 -30 88 94 97 100 -101 -102 -103 -105 -106 -107 -108 -109 -110 -111 -112 -114 -118 -119 -13 -17 -24 -26 -27 -28 -38 -39 -48 -87 0 
-29 -5 -31 6 100 -101 -102 -103 -105 -106 -107 -108 -109 -110 -111 -112 -114 -118 -119 -13 -17 -24 -26 -27 -28 -38 -39 -48 -87 0 
-5 -32 -33 100 -101 -102 -103 -105 -106 -107 -108 -109 -110 -111 -112 -114 -118 -119 -13 -17 -24 -26 -27 -28 -38 -39 -48 -87 0 
-34 100 -101 -102 -103 -105 -106 -107 -108 -109 -110 -111 -112 -114 -118 -119 -13 -17 -24 -26 -27 -28 -38 -39 -48 -87 0 
-8 66 80 -35 104 0 
-36 -21 -37 90 102 -101 -103 -105 -106 -107 -108 -109 -110 -111 -112 -114 -118 -119 0 
-38 13 17 24 26 27 28 39 48 87 111 -101 -102 -103 -105 -106 -107 -108 -109 -110 -112 -114 -118 -119 0 
-39 13 17 24 26 27 28 38 48 87 112 -101 -102 -103 -105 -106 -107 -108 -109 -110 -111 -114 -118 -119 0 
-40 77 107 -101 -102 -103 -105 -106 -108 -109 -110 -111 -112 -114 -118 -119 0 
-41 18 46 61 79 107 -101 -102 -103 -105 -106 -108 -109 -110 -111 -112 -114 -118 -119 0 
-42 51 91 95 107 -101 -102 -103 -105 -106 -108 -109 -110 -111 -112 -114 -118 -119 0 
-29 100 -101 -102 -103 -105 -106 -107 -108 -109 -110 -111 -112 -114 -118 -119 -13 -17 -24 -26 -27 -28 -38 -39 -48 -87 0 
-43 22 52 57 113 -101 -102 -103 -105 -106 -107 -108 -109 -110 -111 -112 -114 -118 -119 0 
-44 -45 107 -101 -102 -103 -105 -106 -108 -109 -110 -111 -112 -114 -118 -119 0 
-46 18 41 61 79 107 -101 -102 -103 -105 -106 -108 -109 -110 -111 -112 -114 -118 -119 0 
-47 100 -101 -102 -103 -105 -106 -107 -108 -109 -110 -111 -112 -114 -118 -119 -13 -17 -24 -26 -27 -28 -38 -39 -48 -87 0 
-1 107 -101 -102 -103 -105 -106 -108 -109 -110 -111 -112 -114 -118 -119 0 
-17 13 24 26 27 28 38 39 48 87 106 -101 -102 -103 -105 -107 -108 -109 -110 -111 -112 -114 -118 -119 0 
-48 13 17 24 26 27 28 38 39 87 114 -101 -102 -103 -105 -106 -107 -108 -109 -110 -111 -112 -118 -119 0 
-10 101 -102 -103 -105 -106 -107 -108 -109 -110 -111 -112 -114 -118 -119 0 
-49 101 -102 -103 -105 -106 -107 -108 -109 -110 -111 -112 -114 -118 -119 0 
-50 107 -101 -102 -103 -105 -106 -108 -109 -110 -111 -112 -114 -118 -119 0 
-51 42 91 95 -21 107 -101 -102 -103 -105 -106 -108 -109 -110 -111 -112 -114 -118 -119 0 
-52 22 43 57 107 -101 -102 -103 -105 -106 -108 -109 -110 -111 -112 -114 -118 -119 0 
-53 2 3 86 107 -101 -102 -103 -105 -106 -108 -109 -110 -111 -112 -114 -118 -119 0 
-54 -55 11 62 107 -101 -102 -103 -105 -106 -108 -109 -110 -111 -112 -114 -118 -119 0 
-56 -57 22 43 52 -58 107 -101 -102 -103 -105 -106 -108 -109 -110 -111 -112 -114 -118 -119 0 
-32 100 -101 -102 -103 -105 -106 -107 -108 -109 -110 -111 -112 -114 -118 -119 -13 -17 -24 -26 -27 -28 -38 -39 -48 -87 0 
-59 107 -101 -102 -103 -105 -106 -108 -109 -110 -111 -112 -114 -118 -119 0 
-60 -7 101 -102 -103 -105 -106 -107 -108 -109 -110 -111 -112 -114 -118 -119 0 
-61 18 41 46 79 107 -101 -102 -103 -105 -106 -108 -109 -110 -111 -112 -114 -118 -119 0 
-36 -62 11 55 102 -101 -103 -105 -106 -107 -108 -109 -110 -111 -112 -114 -118 -119 0 
-11 55 62 109 -101 -102 -103 -105 -106 -107 -108 -110 -111 -112 -114 -118 -119 0 
-11 55 62 103 -101 -102 -105 -106 -107 -108 -109 -110 -111 -112 -114 -118 -119 0 
-20 4 72 -21 -63 107 -101 -102 -103 -105 -106 -108 -109 -110 -111 -112 -114 -118 -119 0 
-64 107 -101 -102 -103 -105 -106 -108 -109 -110 -111 -112 -114 -118 -119 0 
-21 -36 36 0 
-65 19 82 98 -66 8 80 107 -101 -102 -103 -105 -106 -108 -109 -110 -111 -112 -114 -118 -119 0 
-67 -66 8 80 107 -101 -102 -103 -105 -106 -108 -109 -110 -111 -112 -114 -118 -119 0 
-22 43 52 57 -8 66 80 -68 76 -63 102 -101 -103 -105 -106 -107 -108 -109 -110 -111 -112 -114 -118 -119 0 
-69 85 107 -101 -102 -103 -105 -106 -108 -109 -110 -111 -112 -114 -118 -119 0 
-70 100 -101 -102 -103 -105 -106 -107 -108 -109 -110 -111 -112 -114 -118 -119 -13 -17 -24 -26 -27 -28 -38 -39 -48 -87 0 
-24 13 17 26 27 28 38 39 48 87 115 -117 -120 -121 0 
-71 -8 66 80 -68 76 102 -101 -103 -105 -106 -107 -108 -109 -110 -111 -112 -114 -118 -119 0 
-11 55 62 36 0 
-72 4 20 -73 107 -101 -102 -103 -105 -106 -108 -109 -110 -111 -112 -114 -118 -119 0 
-21 -8 66 80 -74 107 -101 -102 -103 -105 -106 -108 -109 -110 -111 -112 -114 -118 -119 0 
-75 107 -101 -102 -103 -105 -106 -108 -109 -110 -111 -112 -114 -118 -119 0 
-8 66 80 -21 -76 68 105 -101 -102 -103 -106 -107 -108 -109 -110 -111 -112 -114 -118 -119 0 
-77 40 -14 -78 -79 18 41 46 61 -23 116 -56 -101 -102 -103 -105 -106 -107 -108 -109 -110 -111 -112 -114 -118 -119 0 
-80 8 66 -36 101 -102 -103 -105 -106 -107 -108 -109 -110 -111 -112 -114 -118 -119 0 
-69 85 107 -101 -102 -103 -105 -106 -108 -109 -110 -111 -112 -114 -118 -119 0 
-21 107 -101 -102 -103 -105 -106 -108 -109 -110 -111 -112 -114 -118 -119 0 
-77 40 100 -101 -102 -103 -105 -106 -107 -108 -109 -110 -111 -112 -114 -118 -119 -13 -17 -24 -26 -27 -28 -38 -39 -48 -87 0 
-81 -21 107 -101 -102 -103 -105 -106 -108 -109 -110 -111 -112 -114 -118 -119 0 
-15 107 -101 -102 -103 -105 -106 -108 -109 -110 -111 -112 -114 -118 -119 0 
-82 19 65 98 107 -101 -102 -103 -105 -106 -108 -109 -110 -111 -112 -114 -118 -119 0 
-83 16 100 -101 -102 -103 -105 -106 -107 -108 -109 -110 -111 -112 -114 -118 -119 -13 -17 -24 -26 -27 -28 -38 -39 -48 -87 0 
-84 100 -101 -102 -103 -105 -106 -107 -108 -109 -110 -111 -112 -114 -118 -119 -13 -17 -24 -26 -27 -28 -38 -39 -48 -87 0 
-85 69 107 -101 -102 -103 -105 -106 -108 -109 -110 -111 -112 -114 -118 -119 0 
-7 101 -102 -103 -105 -106 -107 -108 -109 -110 -111 -112 -114 -118 -119 0 
-8 66 80 -68 76 -63 102 -101 -103 -105 -106 -107 -108 -109 -110 -111 -112 -114 -118 -119 0 
-36 -11 55 62 117 -115 -120 -121 0 
-86 2 3 53 100 -101 -102 -103 -105 -106 -107 -108 -109 -110 -111 -112 -114 -118 -119 -13 -17 -24 -26 -27 -28 -38 -39 -48 -87 0 
-87 13 17 24 26 27 28 38 39 48 118 -101 -102 -103 -105 -106 -107 -108 -109 -110 -111 -112 -114 -119 0 
-88 30 94 97 107 -101 -102 -103 -105 -106 -108 -109 -110 -111 -112 -114 -118 -119 0 
-89 -21 107 -101 -102 -103 -105 -106 -108 -109 -110 -111 -112 -114 -118 -119 0 
-90 37 107 -101 -102 -103 -105 -106 -108 -109 -110 -111 -112 -114 -118 -119 0 
-91 42 51 95 107 -101 -102 -103 -105 -106 -108 -109 -110 -111 -112 -114 -118 -119 0 
-7 -8 66 80 101 -102 -103 -105 -106 -107 -108 -109 -110 -111 -112 -114 -118 -119 0 
-92 -21 107 -101 -102 -103 -105 -106 -108 -109 -110 -111 -112 -114 -118 -119 0 
-93 -21 107 -101 -102 -103 -105 -106 -108 -109 -110 -111 -112 -114 -118 -119 0 
-44 119 -101 -102 -103 -105 -106 -107 -108 -109 -110 -111 -112 -114 -118 0 
-94 30 88 97 -33 -7 101 -102 -103 -105 -106 -107 -108 -109 -110 -111 -112 -114 -118 -119 0 
-95 42 51 91 -96 -66 8 80 120 -115 -117 -121 0 
-97 30 88 94 -8 66 80 121 -115 -117 -120 0 
-98 19 65 82 107 -101 -102 -103 -105 -106 -108 -109 -110 -111 -112 -114 -118 -119 0 
-99 107 -101 -102 -103 -105 -106 -108 -109 -110 -111 -112 -114 -118 -119 0 
